32	0

0	1	2
10	1	3
2	1	4
7	1	5
5	1	6
3	1	7
5	1	8
5	1	9
4	1	10
9	1	11
6	1	12
6	1	13
8	1	14
4	1	15
6	1	16
3	1	17
2	1	18
9	1	19
4	1	20
1	1	21
9	1	22
9	1	23
7	1	24
8	1	25
7	1	26
4	1	27
1	1	28
2	1	29
5	1	30
4	1	31
3	1	32
0	0
